c Lingeling SAT Solver
c 
c Version azf 92032848c138b2f33629ad24394d60a3787a1046
c 
c Copyright (C) 2010-2014 Armin Biere JKU Linz Austria.
c All rights reserved.
c 
c released Don Mai 22 22:08:00 CEST 2014
c compiled Mon Oct  6 05:55:43 PDT 2014
c 
c gcc (Ubuntu 4.8.2-19ubuntu1) 4.8.2
c -Wall -O3 -DNDBLSCR -DNLGLOG -DNDEBUG -DNCHKSOL -DNLGLPICOSAT -DNLGLDRUPLIG
c -DNLGLYALSAT
c Linux ubuntu 3.13.0-32-generic x86_64
c 
c reading input file benchmark-sat/translations/gc-miles1000-32.cnf
c no embedded options
c found 'p cnf 4096 269440' header
c read 4096 variables, 269440 clauses, 542720 literals in 0.00 seconds
c 
c  seconds         irredundant          redundant clauses agility   height
c          variables clauses conflicts large ternary binary    glue         MB
c 
c S    0.0    4096   269440         0       0      0     0   0  0.0   0.0    8
c P    1.0    3993   105148      1001     928      0 58084   5 34.8 260.3    6
c P    2.0    3993   102937      1001     928      0 60295   5 34.8 260.3    7
c P    5.0    3993   102937      1001     928      0 60295   5 34.8 260.3    7
c P   10.0    3968   102912     43001    8266      0 59520   7 40.8 179.0   10
c S   20.0    3968   102912    155091   13523      0 59520   5 51.3 178.6   21
c P   30.0    3968   102912    283004   18897      0 59520   6 50.3 182.1   16
c S   40.0    3968   102912    394835   35403      0 59520   5 50.4 181.4   49
c S   50.0    3968   102912    509614   23025      0 59520   7 48.7 179.2   37
c S   60.0    3968   102912    613574   44591      0 59520   6 51.8 181.6   57
c S  120.0    3968   102912   1260968   56761      0 59520   5 56.6 185.1   89
c S  180.0    3968   102912   1867054   45107      0 59520   6 57.3 185.6   68
c S  240.0    3968   102912   2463793   54729      0 59520   6 59.1 186.8   95
c S  300.0    3968   102912   2986379   58124      0 59520   7 59.9 187.3   85
c S  600.0    3968   102912   5522155   95370      0 59520   5 62.7 190.4  171
c S  900.0    3968   102912   7784002  117696      0 59520   7 63.6 191.6  200
